g3 1 1 0	# problem tp057
 2 1 1 0 0	# vars, constraints, objectives, ranges, eqns
 1 1	# nonlinear constraints, objectives
 0 0	# network constraints: nonlinear, linear
 2 2 2	# nonlinear vars in constraints, objectives, both
 0 0 0 1	# linear network variables; functions; arith, flags
 0 0 0 0 0	# discrete variables: binary, integer, nonlinear (b,c,o)
 2 2	# nonzeros in Jacobian, gradients
 0 0	# max name lengths: constraints, variables
 0 0 0 0 86	# common exprs: b,c,o,c1,o1
b
2 0.4
2 -4
x2
0 0.42
1 5
r
2 0.09
C0
o16
o2
v0
v1
V2 1 2
0 -1
o1
n0.48
o2
o1
n0.49
v0
o44
o16
o2
n2
v1
V3 1 2
0 -1
o1
n0.47
o2
o1
n0.49
v0
o44
o16
o2
n2
v1
V4 1 2
0 -1
o1
n0.48
o2
o1
n0.49
v0
o44
o16
o2
n2
v1
V5 1 2
0 -1
o1
n0.47
o2
o1
n0.49
v0
o44
o16
o2
n2
v1
V6 1 2
0 -1
o1
n0.46
o2
o1
n0.49
v0
o44
o16
o2
n4
v1
V7 1 2
0 -1
o1
n0.46
o2
o1
n0.49
v0
o44
o16
o2
n4
v1
V8 1 2
0 -1
o1
n0.45
o2
o1
n0.49
v0
o44
o16
o2
n4
v1
V9 1 2
0 -1
o1
n0.43
o2
o1
n0.49
v0
o44
o16
o2
n4
v1
V10 1 2
0 -1
o1
n0.45
o2
o1
n0.49
v0
o44
o16
o2
n6
v1
V11 1 2
0 -1
o1
n0.43
o2
o1
n0.49
v0
o44
o16
o2
n6
v1
V12 1 2
0 -1
o1
n0.43
o2
o1
n0.49
v0
o44
o16
o2
n6
v1
V13 1 2
0 -1
o1
n0.44
o2
o1
n0.49
v0
o44
o16
o2
n8
v1
V14 1 2
0 -1
o1
n0.43
o2
o1
n0.49
v0
o44
o16
o2
n8
v1
V15 1 2
0 -1
o1
n0.43
o2
o1
n0.49
v0
o44
o16
o2
n8
v1
V16 1 2
0 -1
o1
n0.46
o2
o1
n0.49
v0
o44
o16
o2
n10
v1
V17 1 2
0 -1
o1
n0.45
o2
o1
n0.49
v0
o44
o16
o2
n10
v1
V18 1 2
0 -1
o1
n0.42
o2
o1
n0.49
v0
o44
o16
o2
n12
v1
V19 1 2
0 -1
o1
n0.42
o2
o1
n0.49
v0
o44
o16
o2
n12
v1
V20 1 2
0 -1
o1
n0.43
o2
o1
n0.49
v0
o44
o16
o2
n12
v1
V21 1 2
0 -1
o1
n0.41
o2
o1
n0.49
v0
o44
o16
o2
n14
v1
V22 1 2
0 -1
o1
n0.41
o2
o1
n0.49
v0
o44
o16
o2
n14
v1
V23 1 2
0 -1
o1
n0.4
o2
o1
n0.49
v0
o44
o16
o2
n14
v1
V24 1 2
0 -1
o1
n0.42
o2
o1
n0.49
v0
o44
o16
o2
n16
v1
V25 1 2
0 -1
o1
n0.4
o2
o1
n0.49
v0
o44
o16
o2
n16
v1
V26 1 2
0 -1
o1
n0.4
o2
o1
n0.49
v0
o44
o16
o2
n16
v1
V27 1 2
0 -1
o1
n0.41
o2
o1
n0.49
v0
o44
o16
o2
n18
v1
V28 1 2
0 -1
o1
n0.4
o2
o1
n0.49
v0
o44
o16
o2
n18
v1
V29 1 2
0 -1
o1
n0.41
o2
o1
n0.49
v0
o44
o16
o2
n18
v1
V30 1 2
0 -1
o1
n0.41
o2
o1
n0.49
v0
o44
o16
o2
n20
v1
V31 1 2
0 -1
o1
n0.4
o2
o1
n0.49
v0
o44
o16
o2
n20
v1
V32 1 2
0 -1
o1
n0.4
o2
o1
n0.49
v0
o44
o16
o2
n22
v1
V33 1 2
0 -1
o1
n0.4
o2
o1
n0.49
v0
o44
o16
o2
n22
v1
V34 1 2
0 -1
o1
n0.38
o2
o1
n0.49
v0
o44
o16
o2
n22
v1
V35 1 2
0 -1
o1
n0.41
o2
o1
n0.49
v0
o44
o16
o2
n24
v1
V36 1 2
0 -1
o1
n0.4
o2
o1
n0.49
v0
o44
o16
o2
n24
v1
V37 1 2
0 -1
o1
n0.4
o2
o1
n0.49
v0
o44
o16
o2
n26
v1
V38 1 2
0 -1
o1
n0.41
o2
o1
n0.49
v0
o44
o16
o2
n28
v1
V39 1 2
0 -1
o1
n0.38
o2
o1
n0.49
v0
o44
o16
o2
n28
v1
V40 1 2
0 -1
o1
n0.4
o2
o1
n0.49
v0
o44
o16
o2
n30
v1
V41 1 2
0 -1
o1
n0.4
o2
o1
n0.49
v0
o44
o16
o2
n30
v1
V42 1 2
0 -1
o1
n0.39
o2
o1
n0.49
v0
o44
o16
o2
n32
v1
V43 1 2
0 -1
o1
n0.39
o2
o1
n0.49
v0
o44
o16
o2
n34
v1
V44 0 2
o5
v2
n2
V45 0 2
o0
v44
o5
v3
n2
V46 0 2
o0
v45
o5
v4
n2
V47 0 2
o0
v46
o5
v5
n2
V48 0 2
o0
v47
o5
v6
n2
V49 0 2
o0
v48
o5
v7
n2
V50 0 2
o0
v49
o5
v8
n2
V51 0 2
o0
v50
o5
v9
n2
V52 0 2
o0
v51
o5
v10
n2
V53 0 2
o0
v52
o5
v11
n2
V54 0 2
o0
v53
o5
v12
n2
V55 0 2
o0
v54
o5
v13
n2
V56 0 2
o0
v55
o5
v14
n2
V57 0 2
o0
v56
o5
v15
n2
V58 0 2
o0
v57
o5
v16
n2
V59 0 2
o0
v58
o5
v17
n2
V60 0 2
o0
v59
o5
v18
n2
V61 0 2
o0
v60
o5
v19
n2
V62 0 2
o0
v61
o5
v20
n2
V63 0 2
o0
v62
o5
v21
n2
V64 0 2
o0
v63
o5
v22
n2
V65 0 2
o0
v64
o5
v23
n2
V66 0 2
o0
v65
o5
v24
n2
V67 0 2
o0
v66
o5
v25
n2
V68 0 2
o0
v67
o5
v26
n2
V69 0 2
o0
v68
o5
v27
n2
V70 0 2
o0
v69
o5
v28
n2
V71 0 2
o0
v70
o5
v29
n2
V72 0 2
o0
v71
o5
v30
n2
V73 0 2
o0
v72
o5
v31
n2
V74 0 2
o0
v73
o5
v32
n2
V75 0 2
o0
v74
o5
v33
n2
V76 0 2
o0
v75
o5
v34
n2
V77 0 2
o0
v76
o5
v35
n2
V78 0 2
o0
v77
o5
v36
n2
V79 0 2
o0
v78
o5
v37
n2
V80 0 2
o0
v79
o5
v38
n2
V81 0 2
o0
v80
o5
v39
n2
V82 0 2
o0
v81
o5
v40
n2
V83 0 2
o0
v82
o5
v41
n2
V84 0 2
o0
v83
o5
v42
n2
V85 0 2
o0
v84
o5
v43
n2
V86 0 2
v85
V87 0 2
v86
O0 0
v87
k1
1
J0 2
0 0
1 0.49
G0 2
0 0
1 0
